(set-info :smt-lib-version 2.7)
(set-logic QF_NIA)
(set-info :source  | 
Generated by: Johannes Bauer
Generated on: 2026-06-18
Generator: mgm A12 Test Data Generator
Application: ELSTER
Target solver: Z3, Yices2, CVC5
Script is based on the ELSTER form: capital gains tax registration (A / KapEStInvStG)
Characteristic of the form: easy.
In this script, all terms of the form (* x1 x2 x3 ...) are in the form (* x1 c2 c3 ...),
all terms of the form (div x y) are in the form (div x c) and the symbol mod is exclusively used in the form (mod x c),
where x, y, and x1, x2, x3 ... are free constants and c, c2, c3 ... are terms in the form n or (-n) for some numeral n.
The script starts with the base constraints, which define a valid data set for the corresponding form. After the first (push 1), control constraints follow.
The goal of the control constraints in this script is to fill up a data set with values, after the characteristics of the high test coverage were placed.
number variables: 186, number constraints: 183
"https://www.elster.de/eportal/start?locale=en_US"
"https://www.mgm-tp.com/q12-tdg.html"
"https://a12.ai/public-sector"
|)
(set-info :license "https://creativecommons.org/licenses/by/4.0/")
(set-info :category "industrial")
(set-info :major-phase |variable declarations|)
(declare-fun B1-F () Bool)
(declare-fun I2-i () Int)
(declare-fun I3-N () Int)
(declare-fun B4-F () Bool)
(declare-fun I4-i () Int)
(declare-fun B5-F () Bool)
(declare-fun B6-F () Bool)
(declare-fun B7-F () Bool)
(declare-fun B8-F () Bool)
(declare-fun I8-y () Int)
(declare-fun B9-F () Bool)
(declare-fun I9-N () Int)
(declare-fun B10-F () Bool)
(declare-fun B11-F () Bool)
(declare-fun B12-F () Bool)
(declare-fun I12-N () Int)
(declare-fun B13-F () Bool)
(declare-fun I13-y () Int)
(declare-fun I13-m () Int)
(declare-fun I13-d () Int)
(declare-fun B14-F () Bool)
(declare-fun I14-y () Int)
(declare-fun I14-m () Int)
(declare-fun I14-d () Int)
(declare-fun B15-F () Bool)
(declare-fun I16 () Int)
(declare-fun I17 () Int)
(declare-fun B18-F () Bool)
(declare-fun I19 () Int)
(declare-fun I20 () Int)
(declare-fun B21-F () Bool)
(declare-fun I22 () Int)
(declare-fun I23 () Int)
(declare-fun B24-F () Bool)
(declare-fun B25-F () Bool)
(declare-fun I25-s-y () Int)
(declare-fun I25-s-m () Int)
(declare-fun I25-s-d () Int)
(declare-fun I25-e-y () Int)
(declare-fun I25-e-m () Int)
(declare-fun I25-e-d () Int)
(declare-fun B26-F () Bool)
(declare-fun I26-y () Int)
(declare-fun I26-m () Int)
(declare-fun I26-d () Int)
(declare-fun B27-F () Bool)
(declare-fun I27-y () Int)
(declare-fun I27-m () Int)
(declare-fun I27-d () Int)
(declare-fun B28-F () Bool)
(declare-fun I29 () Int)
(declare-fun I30 () Int)
(declare-fun B31-F () Bool)
(declare-fun I32 () Int)
(declare-fun I33 () Int)
(declare-fun B34-F () Bool)
(declare-fun I35 () Int)
(declare-fun I36 () Int)
(declare-fun B37-F () Bool)
(declare-fun B38-F () Bool)
(declare-fun I38-s-y () Int)
(declare-fun I38-s-m () Int)
(declare-fun I38-s-d () Int)
(declare-fun I38-e-y () Int)
(declare-fun I38-e-m () Int)
(declare-fun I38-e-d () Int)
(declare-fun B39-F () Bool)
(declare-fun I39-y () Int)
(declare-fun I39-m () Int)
(declare-fun I39-d () Int)
(declare-fun B40-F () Bool)
(declare-fun I40-y () Int)
(declare-fun I40-m () Int)
(declare-fun I40-d () Int)
(declare-fun B41-F () Bool)
(declare-fun I42 () Int)
(declare-fun I43 () Int)
(declare-fun B44-F () Bool)
(declare-fun I45 () Int)
(declare-fun I46 () Int)
(declare-fun B47-F () Bool)
(declare-fun I48 () Int)
(declare-fun I49 () Int)
(declare-fun B50-F () Bool)
(declare-fun B51-F () Bool)
(declare-fun I51-N () Int)
(declare-fun B52-F () Bool)
(declare-fun I52-y () Int)
(declare-fun I52-m () Int)
(declare-fun I52-d () Int)
(declare-fun B53-F () Bool)
(declare-fun I53-y () Int)
(declare-fun I53-m () Int)
(declare-fun I53-d () Int)
(declare-fun B54-F () Bool)
(declare-fun I54-y () Int)
(declare-fun I54-m () Int)
(declare-fun I54-d () Int)
(declare-fun B55-F () Bool)
(declare-fun I56 () Int)
(declare-fun I57 () Int)
(declare-fun B58-F () Bool)
(declare-fun I59 () Int)
(declare-fun I60 () Int)
(declare-fun B61-F () Bool)
(declare-fun I62 () Int)
(declare-fun I63 () Int)
(declare-fun B64-F () Bool)
(declare-fun B65-F () Bool)
(declare-fun I65-y () Int)
(declare-fun I65-m () Int)
(declare-fun I65-d () Int)
(declare-fun B66-F () Bool)
(declare-fun B67-F () Bool)
(declare-fun I68 () Int)
(declare-fun I69 () Int)
(declare-fun B70-F () Bool)
(declare-fun I71 () Int)
(declare-fun I72 () Int)
(declare-fun B73-F () Bool)
(declare-fun I74 () Int)
(declare-fun I75 () Int)
(declare-fun B76-F () Bool)
(declare-fun B77-F () Bool)
(declare-fun I77 () Int)
(declare-fun B78-F () Bool)
(declare-fun I78 () Int)
(declare-fun I79 () Int)
(declare-fun B80-F () Bool)
(declare-fun B81-F () Bool)
(declare-fun I81-y () Int)
(declare-fun I81-m () Int)
(declare-fun I81-d () Int)
(declare-fun B82-F () Bool)
(declare-fun B83-F () Bool)
(declare-fun I83 () Int)
(declare-fun B84-F () Bool)
(declare-fun I84 () Int)
(declare-fun B85-F () Bool)
(declare-fun B86-F () Bool)
(declare-fun B87-F () Bool)
(declare-fun I87 () Int)
(declare-fun B88-F () Bool)
(declare-fun I88 () Int)
(declare-fun B89-F () Bool)
(declare-fun I89 () Int)
(declare-fun B90-F () Bool)
(declare-fun I90 () Int)
(declare-fun B91-F () Bool)
(declare-fun I91 () Int)
(declare-fun B92-F () Bool)
(declare-fun I92 () Int)
(declare-fun B93-F () Bool)
(declare-fun I93 () Int)
(declare-fun B94-F () Bool)
(declare-fun I94 () Int)
(declare-fun B95-F () Bool)
(declare-fun I95 () Int)
(declare-fun B96-F () Bool)
(declare-fun I96 () Int)
(declare-fun B97-F () Bool)
(declare-fun I97 () Int)
(declare-fun B98-F () Bool)
(declare-fun I98 () Int)
(declare-fun B99-F () Bool)
(declare-fun I99 () Int)
(declare-fun B100-F () Bool)
(declare-fun I100 () Int)
(declare-fun B101-F () Bool)
(declare-fun I101 () Int)
(declare-fun B102-F () Bool)
(declare-fun I102 () Int)
(declare-fun B103-F () Bool)
(declare-fun I103 () Int)
(declare-fun I104 () Int)
(declare-fun B105-F () Bool)
(declare-fun B106-F () Bool)
(declare-fun B107-F () Bool)
(declare-fun B108-F () Bool)
(declare-fun B109-F () Bool)
(declare-fun B110-F () Bool)
(declare-fun B111-F () Bool)
(declare-fun B112-F () Bool)
(declare-fun B113-F () Bool)
(declare-fun B114-F () Bool)
(declare-fun B115-F () Bool)
(set-info :major-phase |base constraints|)
(set-info :base-constraint-type |constraints defining hierarchy (group is filled, if a child is filled)|)
(assert (= B80-F (or B81-F B82-F)))
(assert (= B82-F (or B83-F B84-F)))
(assert (= B105-F (or B106-F B107-F)))
(assert (= B11-F (or B12-F B13-F B14-F B15-F B18-F B21-F)))
(assert (not B15-F))
(assert (not B18-F))
(assert (not B21-F))
(assert (= B50-F (or B51-F B52-F B53-F B54-F B55-F B58-F B61-F)))
(assert (not B55-F))
(assert (not B58-F))
(assert (not B61-F))
(assert (= B64-F (or B65-F B66-F B67-F B70-F B73-F B76-F)))
(assert (not B67-F))
(assert (not B70-F))
(assert (not B73-F))
(assert (= B76-F (or B77-F B78-F)))
(assert (= B24-F (or B25-F B26-F B27-F B28-F B31-F B34-F)))
(assert (not B28-F))
(assert (not B31-F))
(assert (not B34-F))
(assert (= B37-F (or B38-F B39-F B40-F B41-F B44-F B47-F)))
(assert (not B41-F))
(assert (not B44-F))
(assert (not B47-F))
(assert (= B108-F (or B109-F B110-F)))
(assert (= B110-F (or B111-F B112-F B113-F B114-F)))
(assert B85-F)
(assert (= B86-F (or B87-F B88-F B89-F B90-F B91-F B92-F B93-F B94-F B95-F B96-F B97-F B98-F B99-F B100-F B101-F B102-F B103-F)))
(set-info :base-constraint-type |domainconstraints number-fields|)
(assert (ite B83-F (and (<= I83 999999999999) (>= I83 0)) (= I83 0)))
(assert (ite B84-F (and (<= I84 999999999999) (>= I84 0)) (= I84 0)))
(assert (and (<= I79 999999999999) (>= I79 (- 999999999999))))
(assert (= I16 0))
(assert (= I17 0))
(assert (= I19 0))
(assert (= I20 0))
(assert (= I22 0))
(assert (= I23 0))
(assert (= I56 0))
(assert (= I57 0))
(assert (= I59 0))
(assert (= I60 0))
(assert (= I62 0))
(assert (= I63 0))
(assert (= I68 0))
(assert (= I69 0))
(assert (= I71 0))
(assert (= I72 0))
(assert (= I74 0))
(assert (= I75 0))
(assert (ite B77-F (and (<= I77 999999999999) (>= I77 (- 999999999999))) (= I77 0)))
(assert (ite B78-F (and (<= I78 999999999999) (>= I78 (- 999999999999))) (= I78 0)))
(assert (= I29 0))
(assert (= I30 0))
(assert (= I32 0))
(assert (= I33 0))
(assert (= I35 0))
(assert (= I36 0))
(assert (= I42 0))
(assert (= I43 0))
(assert (= I45 0))
(assert (= I46 0))
(assert (= I48 0))
(assert (= I49 0))
(assert (ite B90-F (and (<= I90 99999999999999) (>= I90 (- 9999999999999))) (= I90 0)))
(assert (ite B89-F (and (<= I89 99999999999999) (>= I89 (- 9999999999999))) (= I89 0)))
(assert (ite B87-F (and (<= I87 99999999999999) (>= I87 (- 9999999999999))) (= I87 0)))
(assert (ite B88-F (and (<= I88 99999999999999) (>= I88 (- 9999999999999))) (= I88 0)))
(assert (ite B91-F (and (<= I91 99999999999999) (>= I91 (- 9999999999999))) (= I91 0)))
(assert (ite B93-F (and (<= I93 99999999999999) (>= I93 (- 9999999999999))) (= I93 0)))
(assert (ite B92-F (and (<= I92 99999999999999) (>= I92 (- 9999999999999))) (= I92 0)))
(assert (ite B94-F (and (<= I94 99999999999999) (>= I94 (- 9999999999999))) (= I94 0)))
(assert (ite B95-F (and (<= I95 99999999999999) (>= I95 (- 9999999999999))) (= I95 0)))
(assert (ite B96-F (and (<= I96 99999999999999) (>= I96 (- 9999999999999))) (= I96 0)))
(assert (ite B97-F (and (<= I97 99999999999999) (>= I97 (- 9999999999999))) (= I97 0)))
(assert (ite B101-F (and (<= I101 99999999999999) (>= I101 (- 9999999999999))) (= I101 0)))
(assert (ite B98-F (and (<= I98 99999999999999) (>= I98 (- 9999999999999))) (= I98 0)))
(assert (ite B99-F (and (<= I99 99999999999999) (>= I99 (- 9999999999999))) (= I99 0)))
(assert (ite B100-F (and (<= I100 99999999999999) (>= I100 (- 9999999999999))) (= I100 0)))
(assert (ite B102-F (and (<= I102 99999999999999) (>= I102 (- 9999999999999))) (= I102 0)))
(assert (ite B103-F (and (<= I103 99999999999999) (>= I103 (- 9999999999999))) (= I103 0)))
(assert (and (<= I104 99999999999999) (>= I104 (- 9999999999999))))
(set-info :base-constraint-type |domainconstraints date-fields|)
(assert (and (ite B81-F (and (> I81-y 1900) (< I81-y 2100)) (= I81-y 0)) (ite B81-F (and (> I81-m 0) (<= I81-m 12)) (= I81-m 0)) (ite B81-F (and (> I81-d 0) (<= I81-d (ite (or (= I81-m 0) (= I81-m 1) (= I81-m 3) (= I81-m 5) (= I81-m 7) (= I81-m 8) (= I81-m 10) (= I81-m 12)) 31 (ite (or (= I81-m 4) (= I81-m 6) (= I81-m 9) (= I81-m 11)) 30 (ite (= (mod I81-y 4) 0) 29 28))))) (= I81-d 0))))
(assert (ite B8-F (and (> I8-y 1900) (< I8-y 2100)) (= I8-y 0)))
(assert (and (ite B14-F (and (> I14-y 1900) (< I14-y 2100)) (= I14-y 0)) (ite B14-F (and (> I14-m 0) (<= I14-m 12)) (= I14-m 0)) (ite B14-F (and (> I14-d 0) (<= I14-d (ite (or (= I14-m 0) (= I14-m 1) (= I14-m 3) (= I14-m 5) (= I14-m 7) (= I14-m 8) (= I14-m 10) (= I14-m 12)) 31 (ite (or (= I14-m 4) (= I14-m 6) (= I14-m 9) (= I14-m 11)) 30 (ite (= (mod I14-y 4) 0) 29 28))))) (= I14-d 0))))
(assert (and (ite B13-F (and (> I13-y 1900) (< I13-y 2100)) (= I13-y 0)) (ite B13-F (and (> I13-m 0) (<= I13-m 12)) (= I13-m 0)) (ite B13-F (and (> I13-d 0) (<= I13-d (ite (or (= I13-m 0) (= I13-m 1) (= I13-m 3) (= I13-m 5) (= I13-m 7) (= I13-m 8) (= I13-m 10) (= I13-m 12)) 31 (ite (or (= I13-m 4) (= I13-m 6) (= I13-m 9) (= I13-m 11)) 30 (ite (= (mod I13-y 4) 0) 29 28))))) (= I13-d 0))))
(assert (and (ite B53-F (and (> I53-y 1900) (< I53-y 2100)) (= I53-y 0)) (ite B53-F (and (> I53-m 0) (<= I53-m 12)) (= I53-m 0)) (ite B53-F (and (> I53-d 0) (<= I53-d (ite (or (= I53-m 0) (= I53-m 1) (= I53-m 3) (= I53-m 5) (= I53-m 7) (= I53-m 8) (= I53-m 10) (= I53-m 12)) 31 (ite (or (= I53-m 4) (= I53-m 6) (= I53-m 9) (= I53-m 11)) 30 (ite (= (mod I53-y 4) 0) 29 28))))) (= I53-d 0))))
(assert (and (ite B52-F (and (> I52-y 1900) (< I52-y 2100)) (= I52-y 0)) (ite B52-F (and (> I52-m 0) (<= I52-m 12)) (= I52-m 0)) (ite B52-F (and (> I52-d 0) (<= I52-d (ite (or (= I52-m 0) (= I52-m 1) (= I52-m 3) (= I52-m 5) (= I52-m 7) (= I52-m 8) (= I52-m 10) (= I52-m 12)) 31 (ite (or (= I52-m 4) (= I52-m 6) (= I52-m 9) (= I52-m 11)) 30 (ite (= (mod I52-y 4) 0) 29 28))))) (= I52-d 0))))
(assert (and (ite B54-F (and (> I54-y 1900) (< I54-y 2100)) (= I54-y 0)) (ite B54-F (and (> I54-m 0) (<= I54-m 12)) (= I54-m 0)) (ite B54-F (and (> I54-d 0) (<= I54-d (ite (or (= I54-m 0) (= I54-m 1) (= I54-m 3) (= I54-m 5) (= I54-m 7) (= I54-m 8) (= I54-m 10) (= I54-m 12)) 31 (ite (or (= I54-m 4) (= I54-m 6) (= I54-m 9) (= I54-m 11)) 30 (ite (= (mod I54-y 4) 0) 29 28))))) (= I54-d 0))))
(assert (and (ite B65-F (and (> I65-y 1900) (< I65-y 2100)) (= I65-y 0)) (ite B65-F (and (> I65-m 0) (<= I65-m 12)) (= I65-m 0)) (ite B65-F (and (> I65-d 0) (<= I65-d (ite (or (= I65-m 0) (= I65-m 1) (= I65-m 3) (= I65-m 5) (= I65-m 7) (= I65-m 8) (= I65-m 10) (= I65-m 12)) 31 (ite (or (= I65-m 4) (= I65-m 6) (= I65-m 9) (= I65-m 11)) 30 (ite (= (mod I65-y 4) 0) 29 28))))) (= I65-d 0))))
(assert (and (ite B27-F (and (> I27-y 1900) (< I27-y 2100)) (= I27-y 0)) (ite B27-F (and (> I27-m 0) (<= I27-m 12)) (= I27-m 0)) (ite B27-F (and (> I27-d 0) (<= I27-d (ite (or (= I27-m 0) (= I27-m 1) (= I27-m 3) (= I27-m 5) (= I27-m 7) (= I27-m 8) (= I27-m 10) (= I27-m 12)) 31 (ite (or (= I27-m 4) (= I27-m 6) (= I27-m 9) (= I27-m 11)) 30 (ite (= (mod I27-y 4) 0) 29 28))))) (= I27-d 0))))
(assert (and (ite B26-F (and (> I26-y 1900) (< I26-y 2100)) (= I26-y 0)) (ite B26-F (and (> I26-m 0) (<= I26-m 12)) (= I26-m 0)) (ite B26-F (and (> I26-d 0) (<= I26-d (ite (or (= I26-m 0) (= I26-m 1) (= I26-m 3) (= I26-m 5) (= I26-m 7) (= I26-m 8) (= I26-m 10) (= I26-m 12)) 31 (ite (or (= I26-m 4) (= I26-m 6) (= I26-m 9) (= I26-m 11)) 30 (ite (= (mod I26-y 4) 0) 29 28))))) (= I26-d 0))))
(assert (or (< I25-s-y I25-e-y) (and (= I25-s-y I25-e-y) (< I25-s-m I25-e-m)) (and (= I25-s-y I25-e-y) (= I25-s-m I25-e-m) (<= I25-s-d I25-e-d))))
(assert (=> B25-F (and (>= I25-e-d 1) (<= I25-e-d (ite (or (= I25-e-m 0) (= I25-e-m 1) (= I25-e-m 3) (= I25-e-m 5) (= I25-e-m 7) (= I25-e-m 8) (= I25-e-m 10) (= I25-e-m 12)) 31 (ite (or (= I25-e-m 4) (= I25-e-m 6) (= I25-e-m 9) (= I25-e-m 11)) 30 (ite (= (mod I25-e-y 4) 0) 29 28)))))))
(assert (=> B25-F (and (>= I25-e-m 1) (<= I25-e-m 12))))
(assert (=> B25-F (and (>= I25-e-y 1901) (<= I25-e-y 2099))))
(assert (=> B25-F (and (>= I25-s-d 1) (<= I25-s-d (ite (or (= I25-s-m 0) (= I25-s-m 1) (= I25-s-m 3) (= I25-s-m 5) (= I25-s-m 7) (= I25-s-m 8) (= I25-s-m 10) (= I25-s-m 12)) 31 (ite (or (= I25-s-m 4) (= I25-s-m 6) (= I25-s-m 9) (= I25-s-m 11)) 30 (ite (= (mod I25-s-y 4) 0) 29 28)))))))
(assert (=> B25-F (and (>= I25-s-m 1) (<= I25-s-m 12))))
(assert (=> B25-F (and (>= I25-s-y 1901) (<= I25-s-y 2099))))
(assert (and (ite B40-F (and (> I40-y 1900) (< I40-y 2100)) (= I40-y 0)) (ite B40-F (and (> I40-m 0) (<= I40-m 12)) (= I40-m 0)) (ite B40-F (and (> I40-d 0) (<= I40-d (ite (or (= I40-m 0) (= I40-m 1) (= I40-m 3) (= I40-m 5) (= I40-m 7) (= I40-m 8) (= I40-m 10) (= I40-m 12)) 31 (ite (or (= I40-m 4) (= I40-m 6) (= I40-m 9) (= I40-m 11)) 30 (ite (= (mod I40-y 4) 0) 29 28))))) (= I40-d 0))))
(assert (and (ite B39-F (and (> I39-y 1900) (< I39-y 2100)) (= I39-y 0)) (ite B39-F (and (> I39-m 0) (<= I39-m 12)) (= I39-m 0)) (ite B39-F (and (> I39-d 0) (<= I39-d (ite (or (= I39-m 0) (= I39-m 1) (= I39-m 3) (= I39-m 5) (= I39-m 7) (= I39-m 8) (= I39-m 10) (= I39-m 12)) 31 (ite (or (= I39-m 4) (= I39-m 6) (= I39-m 9) (= I39-m 11)) 30 (ite (= (mod I39-y 4) 0) 29 28))))) (= I39-d 0))))
(assert (or (< I38-s-y I38-e-y) (and (= I38-s-y I38-e-y) (< I38-s-m I38-e-m)) (and (= I38-s-y I38-e-y) (= I38-s-m I38-e-m) (<= I38-s-d I38-e-d))))
(assert (=> B38-F (and (>= I38-e-d 1) (<= I38-e-d (ite (or (= I38-e-m 0) (= I38-e-m 1) (= I38-e-m 3) (= I38-e-m 5) (= I38-e-m 7) (= I38-e-m 8) (= I38-e-m 10) (= I38-e-m 12)) 31 (ite (or (= I38-e-m 4) (= I38-e-m 6) (= I38-e-m 9) (= I38-e-m 11)) 30 (ite (= (mod I38-e-y 4) 0) 29 28)))))))
(assert (=> B38-F (and (>= I38-e-m 1) (<= I38-e-m 12))))
(assert (=> B38-F (and (>= I38-e-y 1901) (<= I38-e-y 2099))))
(assert (=> B38-F (and (>= I38-s-d 1) (<= I38-s-d (ite (or (= I38-s-m 0) (= I38-s-m 1) (= I38-s-m 3) (= I38-s-m 5) (= I38-s-m 7) (= I38-s-m 8) (= I38-s-m 10) (= I38-s-m 12)) 31 (ite (or (= I38-s-m 4) (= I38-s-m 6) (= I38-s-m 9) (= I38-s-m 11)) 30 (ite (= (mod I38-s-y 4) 0) 29 28)))))))
(assert (=> B38-F (and (>= I38-s-m 1) (<= I38-s-m 12))))
(assert (=> B38-F (and (>= I38-s-y 1901) (<= I38-s-y 2099))))
(set-info :base-constraint-type |constraints for date-strategy|)
(assert (=> B12-F (and (> I12-N 1900) (< I12-N 2100))))
(assert (=> B12-F (and (> I12-N 1900) (< I12-N 2100))))
(set-info :base-constraint-type |domainconstraints string fields|)
(assert (ite B12-F (and (>= I12-N 0) (<= I12-N 9999)) (= I12-N 0)))
(assert (ite B51-F (and (>= I51-N 0) (<= I51-N 9999)) (= I51-N 0)))
(set-info :base-constraint-type |domainconstraints index-based string fields|)
(assert (or (= I3-N 0) (= I3-N 1)))
(assert (ite B9-F (or (= I9-N 1) (= I9-N 2) (= I9-N 3) (= I9-N 4) (= I9-N 5) (= I9-N 6) (= I9-N 7) (= I9-N 8) (= I9-N 9) (= I9-N 10) (= I9-N 11) (= I9-N 12)) (= I9-N 0)))
(assert (or (= I2-i 1) (= I2-i 2) (= I2-i 3) (= I2-i 4) (= I2-i 5) (= I2-i 6) (= I2-i 7) (= I2-i 8) (= I2-i 9) (= I2-i 10) (= I2-i 11) (= I2-i 12) (= I2-i 13) (= I2-i 14) (= I2-i 15)))
(assert (ite B4-F (or (= I4-i 1) (= I4-i 2) (= I4-i 3) (= I4-i 4) (= I4-i 5) (= I4-i 6) (= I4-i 7) (= I4-i 8) (= I4-i 9) (= I4-i 10) (= I4-i 11) (= I4-i 12) (= I4-i 13) (= I4-i 14) (= I4-i 15)) (= I4-i 0)))
(set-info :base-constraint-type |constraints, guarding filling of calculations|)
(assert B78-F)
(set-info :base-constraint-type |constraints from validation-rules|)
(assert (not (and B84-F B83-F (distinct I83 0) (distinct I84 (div (* I83 15) 100)))))
(assert (not (and B81-F (or (< I81-y 2025) (> I81-y 2025)))))
(assert (not (and (or B107-F B106-F) (not (and B107-F B106-F)))))
(assert (not (and B78-F (distinct I79 (+ I17 I20 I23 I30 I33 I36 I43 I46 I49 I57 I60 I63 I69 I72 I75 I78)))))
(assert (not (and B8-F (or (< I8-y 2025) (> I8-y 2025)))))
(assert (not (and B14-F B13-F (or (> I14-y I13-y) (and (= I14-y I13-y) (> I14-m I13-m)) (and (= I14-y I13-y) (= I14-m I13-m) (> I14-d I13-d))))))
(assert (not (and B13-F (or (distinct I13-y (ite B8-F I8-y 0)) (distinct I13-m I9-N)))))
(assert (not (and B12-F B14-F (>= (ite (and (>= I12-N 1) (<= I12-N 9999)) (+ (- I14-y I12-N) (ite (or (< I12-N I14-y) (and (= I12-N I14-y) (< 5 I14-m)) (and (= I12-N I14-y) (= 5 I14-m) (< 1 I14-d)) (and (= I12-N I14-y) (= 5 I14-m) (= 1 I14-d))) (ite (or (< 5 I14-m) (and (= 5 I14-m) (<= 1 I14-d))) 0 (- 1)) (ite (or (> 5 I14-m) (and (= 5 I14-m) (>= 1 I14-d))) 0 1))) 0) 1))))
(assert (not (and B13-F (< I13-y I12-N))))
(assert (not (and (not (and B14-F B13-F B12-F)) (or B15-F B18-F B21-F))))
(assert (not (and (or B12-F B13-F B14-F) (not B15-F) (not B18-F) (not B21-F))))
(assert (not (and B12-F (> I12-N 2025))))
(assert (not (and B53-F (not B54-F))))
(assert (not (and B53-F B52-F (or (< I53-y I52-y) (and (= I53-y I52-y) (< I53-m I52-m)) (and (= I53-y I52-y) (= I53-m I52-m) (< I53-d I52-d)) (and (= I53-y I52-y) (= I53-m I52-m) (= I53-d I52-d))))))
(assert (not (and B53-F (< I53-y I51-N))))
(assert (not (and B53-F B54-F (or (< I53-y I54-y) (and (= I53-y I54-y) (< I53-m I54-m)) (and (= I53-y I54-y) (= I53-m I54-m) (< I53-d I54-d))))))
(assert (not (and B53-F (or (< I53-y (ite B8-F I8-y 0)) (and (= I53-y (ite B8-F I8-y 0)) (< I53-m I9-N))))))
(assert (not (and B54-F (< I54-y 2023))))
(assert (not (and (not (and B51-F B52-F)) (or B55-F B58-F B61-F))))
(assert (not (and B52-F (distinct I52-y I51-N))))
(assert (not (and (or B51-F B52-F B54-F) (not B55-F) (not B58-F) (not B61-F))))
(assert (not (and B52-F (or (> I52-y (ite B8-F I8-y 0)) (and (= I52-y (ite B8-F I8-y 0)) (> I52-m I9-N))))))
(assert (not (and B51-F (> I51-N 2025))))
(assert (not (and B51-F (or (and B52-F (or (< I52-y 2022) (and (= I52-y 2022) (< I52-m 10)) (and (= I52-y 2022) (= I52-m 10) (< I52-d 1))) (< I51-N 2025)) (and B52-F (or (> I52-y 2022) (and (= I52-y 2022) (> I52-m 10)) (and (= I52-y 2022) (= I52-m 10) (> I52-d 1)) (and (= I52-y 2022) (= I52-m 10) (= I52-d 1))) (or (and (< I51-N 2025) (= I51-N 2024) (>= I9-N 5) (<= I9-N 12)) (and (< I51-N 2025) (distinct I51-N 2024))))))))
(assert (not (and B52-F (or (and (= I52-y (ite B8-F I8-y 0)) (< I52-m (- I9-N 4))) (and (distinct I52-y (ite B8-F I8-y 0)) (< I52-y (- (ite B8-F I8-y 0) 1))) (and (distinct I52-y (ite B8-F I8-y 0)) (= I52-y (- (ite B8-F I8-y 0) 1)) (> I52-m 8) (< I52-m (- (+ I9-N 12) 4))) (and (distinct I52-y (ite B8-F I8-y 0)) (= I52-y (- (ite B8-F I8-y 0) 1)) (<= I52-m 8))))))
(assert (not (and (not (and B66-F B65-F)) (or B67-F B70-F B73-F))))
(assert (not (and (or B66-F B65-F) (not B67-F) (not B70-F) (not B73-F))))
(assert (not (and B77-F (distinct I77 0) (= I78 0))))
(assert (not (and B78-F (> (* I78 100) (+ (* I77 15) 100)))))
(assert (not (and B65-F (or (> I65-y (ite B8-F I8-y 0)) (and (> I65-m I9-N) (= I65-y (ite B8-F I8-y 0)))))))
(assert (not (and B27-F B26-F (or (> I27-y I26-y) (and (= I27-y I26-y) (> I27-m I26-m)) (and (= I27-y I26-y) (= I27-m I26-m) (> I27-d I26-d))))))
(assert (not (and B26-F (or (distinct I26-y (ite B8-F I8-y 0)) (distinct I26-m I9-N)))))
(assert (not (and B26-F (< I26-y 2025))))
(assert (not (and (not (and B27-F B26-F B25-F)) (or B28-F B31-F B34-F))))
(assert (not (and (or B27-F B26-F B25-F) (not B28-F) (not B31-F) (not B34-F))))
(assert (not (and B25-F B26-F (or (> I25-e-y I26-y) (and (= I25-e-y I26-y) (> I25-e-m I26-m)) (and (= I25-e-y I26-y) (= I25-e-m I26-m) (> I25-e-d I26-d))))))
(assert (not (and B25-F (not B26-F))))
(assert (not (and B25-F (or (< I25-s-y (- I25-e-y 1)) (and (= I25-s-y (- I25-e-y 1)) (< I25-s-m I25-e-m)) (and (= I25-s-y (- I25-e-y 1)) (= I25-s-m I25-e-m) (< I25-s-d (+ I25-e-d 1)))))))
(assert (not (and B40-F B39-F (or (> I40-y I39-y) (and (= I40-y I39-y) (> I40-m I39-m)) (and (= I40-y I39-y) (= I40-m I39-m) (> I40-d I39-d))))))
(assert (not (and B39-F (or (distinct I39-y (ite B8-F I8-y 0)) (distinct I39-m I9-N)))))
(assert (not (and B39-F (< I39-y 2025))))
(assert (not (and (not (and B40-F B39-F B38-F)) (or B41-F B44-F B47-F))))
(assert (not (and (or B40-F B39-F B38-F) (not B41-F) (not B44-F) (not B47-F))))
(assert (not (and B38-F B39-F (or (> I38-e-y I39-y) (and (= I38-e-y I39-y) (> I38-e-m I39-m)) (and (= I38-e-y I39-y) (= I38-e-m I39-m) (> I38-e-d I39-d))))))
(assert (not (and B38-F (not B39-F))))
(assert (not (and B38-F (or (< I38-s-y (- I38-e-y 1)) (and (= I38-s-y (- I38-e-y 1)) (< I38-s-m I38-e-m)) (and (= I38-s-y (- I38-e-y 1)) (= I38-s-m I38-e-m) (< I38-s-d (+ I38-e-d 1)))))))
(assert B1-F)
(assert (not (and (or B1-F B8-F B9-F) (not B11-F) (not B24-F) (not B37-F) (not B50-F) (not B64-F))))
(assert (not (and B1-F B81-F)))
(assert (not (and B1-F (not (and B8-F B9-F)))))
(assert (not (and B1-F B8-F B9-F (or (< 2026 I8-y) (and (= 2026 I8-y) (<= 6 I9-N))))))
(assert (not (and B1-F B8-F B9-F (or (< 2027 I8-y) (and (= 2027 I8-y) (<= 6 I9-N))))))
(assert (not (and B109-F (not (and B111-F B112-F)))))
(assert (not (and (not B109-F) (or B111-F B112-F))))
(assert (not (and B4-F (= I3-N 0))))
(assert (not (and B4-F (= I4-i I2-i))))
(assert (not B80-F))
(assert (not (and (or B90-F B89-F B91-F B87-F B88-F B92-F B93-F B94-F B95-F B96-F B103-F B97-F B100-F B101-F B98-F B99-F B102-F) (distinct I104 (+ I90 I89 I91 I87 I88 I92 I93 I94 I95 I96 I103 I97 I100 I101 I98 I99 I102)))))
(assert (not (and (not B90-F) (not B89-F) (not B91-F) (not B87-F) (not B88-F) (not B92-F) (not B93-F) (not B94-F) (not B95-F) (not B96-F) (not B103-F) (not B97-F) (not B100-F) (not B101-F) (not B98-F) (not B99-F) (not B102-F))))
(assert (not (distinct I104 (* I79 100))))
(set-info :major-phase |control constraints|)
(push 1)
(assert B112-F)
(set-info :status sat)
(check-sat)
(push 1)
(assert B26-F)
(set-info :status unsat)
(check-sat)
(pop 1)
(push 1)
(assert B91-F)
(set-info :status sat)
(check-sat)
(push 1)
(assert B66-F)
(set-info :status unsat)
(check-sat)
(pop 1)
(push 1)
(assert B92-F)
(set-info :status sat)
(check-sat)
(push 1)
(assert B12-F)
(set-info :status unsat)
(check-sat)
(pop 1)
(push 1)
(assert B93-F)
(set-info :status sat)
(check-sat)
(push 1)
(assert B7-F)
(set-info :status sat)
(check-sat)
(push 1)
(assert B25-F)
(set-info :status unsat)
(check-sat)
(pop 1)
(push 1)
(assert B5-F)
(set-info :status sat)
(check-sat)
(push 1)
(assert B27-F)
(set-info :status unsat)
(check-sat)
(pop 1)
(push 1)
(assert B98-F)
(set-info :status sat)
(check-sat)
(push 1)
(assert B99-F)
(set-info :status sat)
(check-sat)
(push 1)
(assert B87-F)
(set-info :status sat)
(check-sat)
(push 1)
(assert B101-F)
(set-info :status sat)
(check-sat)
(push 1)
(assert B88-F)
(set-info :status sat)
(check-sat)
(push 1)
(assert B78-F)
(set-info :status sat)
(check-sat)
(push 1)
(assert B83-F)
(set-info :status unsat)
(check-sat)
(pop 1)
(push 1)
(assert B100-F)
(set-info :status sat)
(check-sat)
(push 1)
(assert B51-F)
(set-info :status unsat)
(check-sat)
(pop 1)
(push 1)
(assert B1-F)
(set-info :status sat)
(check-sat)
(push 1)
(assert B53-F)
(set-info :status unsat)
(check-sat)
(pop 1)
(push 1)
(assert B40-F)
(set-info :status unsat)
(check-sat)
(pop 1)
(push 1)
(assert B90-F)
(set-info :status sat)
(check-sat)
(push 1)
(assert B113-F)
(set-info :status sat)
(check-sat)
(push 1)
(assert B89-F)
(set-info :status sat)
(check-sat)
(push 1)
(assert B97-F)
(set-info :status sat)
(check-sat)
(push 1)
(assert B111-F)
(set-info :status sat)
(check-sat)
(push 1)
(assert B39-F)
(set-info :status unsat)
(check-sat)
(pop 1)
(push 1)
(assert B9-F)
(set-info :status sat)
(check-sat)
(push 1)
(assert B109-F)
(set-info :status sat)
(check-sat)
(push 1)
(assert B107-F)
(set-info :status sat)
(check-sat)
(push 1)
(assert B38-F)
(set-info :status unsat)
(check-sat)
(pop 1)
(push 1)
(assert B102-F)
(set-info :status sat)
(check-sat)
(push 1)
(assert B54-F)
(set-info :status unsat)
(check-sat)
(pop 1)
(push 1)
(assert B84-F)
(set-info :status unsat)
(check-sat)
(pop 1)
(push 1)
(assert B96-F)
(set-info :status sat)
(check-sat)
(push 1)
(assert B103-F)
(set-info :status sat)
(check-sat)
(push 1)
(assert B115-F)
(set-info :status sat)
(check-sat)
(push 1)
(assert B6-F)
(set-info :status sat)
(check-sat)
(push 1)
(assert B52-F)
(set-info :status unsat)
(check-sat)
(pop 1)
(push 1)
(assert B8-F)
(set-info :status sat)
(check-sat)
(push 1)
(assert B13-F)
(set-info :status unsat)
(check-sat)
(pop 1)
(push 1)
(assert B95-F)
(set-info :status sat)
(check-sat)
(push 1)
(assert B81-F)
(set-info :status unsat)
(check-sat)
(pop 1)
(push 1)
(assert B94-F)
(set-info :status sat)
(check-sat)
(push 1)
(assert B77-F)
(set-info :status sat)
(check-sat)
(push 1)
(assert B4-F)
(set-info :status sat)
(check-sat)
(push 1)
(assert B10-F)
(set-info :status sat)
(check-sat)
(push 1)
(assert B14-F)
(set-info :status unsat)
(check-sat)
(pop 1)
(push 1)
(assert B106-F)
(set-info :status sat)
(check-sat)
(push 1)
(assert B65-F)
(set-info :status unsat)
(check-sat)
(pop 1)
(push 1)
(assert B114-F)
(set-info :status sat)
(check-sat)
(exit)

